4 
5  38 58 
6  16 31 44 59 
7  14 29 44 59 
8  14 29 44 59 
9  14 30 44 59 
10  14 29 44 58 
11  13 28 43 58 
12  13 28 43 58 
13  14 29 44 59 
14  14 29 44 59 
15  14 29 44 59 
16  14 29 44 59 
17  14 29 44 59 
18  14 29 44 
19  00 14 29 44 59 
20  14 29 44 59 
21  14 32 47 59 
22  14 29 44 
23  03 16 31 
0 
